'hugeuniform108'
150 75 75
150
148
145
145
143
138
137
136
135
131
130
128
128
127
126
125
125
121
120
118
118
118
117
116
115
112
109
108
108
104
104
103
103
98
94
92
90
87
87
86
85
83
83
82
80
79
79
79
78
71
69
68
67
59
57
56
53
52
51
49
46
43
43
42
41
37
36
31
27
22
17
15
13
12
11
